/*********************************************
 * OPL 12.10.0.0 Data
 * Author: camille
 * Creation Date: 2 janv. 2023 at 22:36:08
 *********************************************/

n_transmitters = 7;
n_freq = 10;

 offset = {
   <1,2,3>,
   <1,5,2>,
   <2,3,2>,
   <2,4,1>,
   <2,5,2>,
   <3,4,3>,
   <3,5,1>,
   <6,3,1>,
   <6,4,2>,
   <7,2,3>,
   <7,3,2>
};